
Gurobi 11.0.3 (linux64) logging started Fri Nov 22 14:34:57 2024

Set parameter LogFile to value "/home/yihong/Coding/OR_SUC/SUC_results_bigM100000_thread4/case24_ieee_rts_theta0.5_epsilon0.025_gurobi_seed510000_num_gen100_N_WDR100_load_scaling_factor1_exact_T16quadra_cost.txt"
Set parameter TimeLimit to value 3600
Gurobi Optimizer version 11.0.3 build v11.0.3rc0 (linux64 - "Ubuntu 20.04.6 LTS")

CPU model: AMD EPYC 7532 32-Core Processor, instruction set [SSE2|AVX|AVX2]
Thread count: 64 physical cores, 128 logical processors, using up to 4 threads

Optimize a model with 34563 rows, 20041 columns and 474826 nonzeros
Model fingerprint: 0x93916bd3
Model has 1600 quadratic constraints
Variable types: 18341 continuous, 1700 integer (1700 binary)
Coefficient statistics:
  Matrix range     [3e-04, 1e+05]
  QMatrix range    [2e-03, 8e-03]
  QLMatrix range   [2e-01, 6e+01]
  Objective range  [1e+00, 1e+00]
  Bounds range     [1e+00, 1e+00]
  RHS range        [1e+00, 1e+05]
Presolve removed 28062 rows and 8767 columns
Presolve time: 0.16s
Presolved: 6501 rows, 11274 columns, 41114 nonzeros
Presolved model has 1600 quadratic constraint(s)
Variable types: 9630 continuous, 1644 integer (1644 binary)

Root relaxation: objective 4.614905e+04, 5315 iterations, 0.11 seconds (0.16 work units)

    Nodes    |    Current Node    |     Objective Bounds      |     Work
 Expl Unexpl |  Obj  Depth IntInf | Incumbent    BestBd   Gap | It/Node Time

     0     0 46149.0522    0   20          - 46149.0522      -     -    0s
     0     0 281911.855    0  410          - 281911.855      -     -    0s
     0     0 424870.784    0  340          - 424870.784      -     -    0s
     0     0 424878.895    0  211          - 424878.895      -     -    0s
     0     0 425231.659    0  156          - 425231.659      -     -    0s
     0     0 425286.731    0  153          - 425286.731      -     -    1s
     0     0 425286.912    0  153          - 425286.912      -     -    1s
     0     2 425287.209    0  153          - 425287.209      -     -    1s
H  329   233                    425705.77618 425328.108  0.09%  22.5    3s
*  329   233             100    425705.77618 425328.108  0.09%  22.8    3s

Cutting planes:
  Gomory: 31
  Implied bound: 305
  MIR: 66
  Flow cover: 106

Explored 337 nodes (22206 simplex iterations) in 4.04 seconds (5.34 work units)
Thread count was 4 (of 128 available processors)

Solution count 2: 425706 425706 

Optimal solution found (tolerance 1.00e-03)
Warning: max constraint violation (7.8874e-08) exceeds tolerance
Best objective 4.257057761849e+05, best bound 4.253281083274e+05, gap 0.0887%
